Maximize
score: + 216258 c0 + 13 c1 + 36 c2 + 196 c3 + 89 c4 + 44 c5 + 64 c6 + 12 c7 + 88 c8 + 196 c9 + 54 c10 + 49 c11 + 56 c12 + 316 c13 + 80 c14 + 84 c15 + 15738 c16 + 109 c17 + 572 c18 + 100 c19 + 168 c20 + 96 c21 + 91 c22 + 77 c23 + 81 c24 + 36 c25 + 117 c26 + 196 c27 + 63 c28 + 774 c29 + 27 c30 + 36 c31 + 46 c32 + 147 c33 + 64 c34 + 121 c35 + 144 c36 + 44 c37 + 27 c38 + 342 c39 + 525 c40 + 36 c41 + 80 c42 + 624 c43 + 240 c44 + 116 c45 + 121 c46 + 324 c47 + 364 c48 + 64 c49 + 165 c50 + 250 c51 + 128 c52 + 7225 c53 + 164 c54 + 56 c55 + 37 c56 + 210 c57 + 496 c58 + 247 c59 + 49 c60 + 487 c61 + 80 c62 + 82 c63 + 196 c64 + 224 c65 + 80 c66 + 63 c67 + 48 c68 + 285 c69 + 90 c70 + 344 c71 + 483 c72 + 120 c73 + 92 c74 + 54 c75 + 469 c76 + 48 c77 + 736 c78 + 289 c79 + 351 c80 + 324 c81 + 3249 c82 + 12916 c83 + 1056 c84 + 930 c85 + 21080 c86 + 224 c87 + 64 c88 + 433 c89 + 396 c90 + 38 c91 + 119 c92 + 30 c93 + 60 c94 + 399 c95 + 49 c96 + 168 c97 + 2732 c98 + 48 c99 + 7744 c100 + 3988 c101 + 416 c102 + 568 c103 + 96 c104 + 72 c105 + 204 c106 + 180 c107 + 117 c108 + 1152 c109 + 2107 c110 + 166 c111 + 702 c112 + 1717 c113 + 60 c114 + 102 c115 + 195 c116 + 2270 c117 + 87 c118 + 241 c119 + 9988 c120 + 42 c121 + 79 c122 + 4086 c123 + 14755 c124 + 65 c125 + 314 c126 + 580 c127 + 178 c128 + 840 c129 + 107 c130 + 208 c131 + 160 c132 + 324 c133 + 660 c134 + 312 c135 + 1571 c136 + 490 c137 + 207 c138 + 1980 c139 + 525 c140 + 1245 c141 + 260 c142 + 303 c143 + 312 c144 + 85985 c145 + 3927 c146 + 695 c147 + 231 c148 + 1080 c149 + 5400 c150 + 970 c151 + 3366 c152 + 1272 c153 + 6171 c154 + 6171 c155 + 136884 c156 + 3366 c157

Subject To
index_0: s0 + s1 + s2 + s3 + s4 + s5 + s6 + s7 + s8 + s9 + s10 + s11 + s12 + s13 + s14 + s15 + s16 + s17 + s18 + s19 + s20 + s21 + s22 + s23 + s24 + s25 + s26 + s27 + s28 + s29 + s30 + s31 + s32 + s33 + s34 + s35 + s36 + s37 + s38 + s39 + s40 + s41 + s42 + s43 + s44 + s45 + s46 + s47 + s48 + s49 + s50 + s51 + s52 + s53 + s54 + s55 + s56 + s57 + s58 + s59 + s60 + s61 + s62 + s63 + s64 + s65 + s66 + s67 + s68 + s69 + s70 + s71 + s72 + s73 + s74 + s75 + s76 + s77 + s78 + s79 + s80 + s81 + s82 + s85 + s86 + s87 + s88 + s89 + s90 + s91 + s92 + s93 + s94 + s95 + s96 + s97 + s98 + s99 + s100 + s101 + s103 + s104 + s105 + s106 + s107 + s109 + s110 + s111 + s112 + s113 + s114 + s115 + s116 + s117 + s118 + s119 + s120 + s121 + s122 + s123 + s124 + s125 + s126 + s127 + s128 + s129 + s130 + s131 + s132 + s133 + s134 + s135 + s136 + s137 + s138 + s139 + s140 + s141 + s142 + s143 + s144 + s147 + s148 + s150 + s151 + s152 + s153 + s154 + s155 + s156 + s157 + s159 + s160 + s161 + s162 + s163 + s164 + s166 + s167 + s168 + s169 + s170 + s171 + s173 + s174 + s175 + s176 + s177 + s178 + s179 + s180 + s181 + s182 + s183 + s184 + s185 + s186 + s187 + s188 + s189 + s190 + s191 + s192 + s193 + s194 + s195 + s196 + s197 + s198 + s199 + s200 + s201 + s202 + s203 + s204 + s205 + s206 + s207 + s208 + s209 + s210 + s211 + s212 + s213 + s214 + s215 + s216 + s217 + s218 + s219 + s220 + s221 + s222 + s223 + s224 + s225 + s226 + s227 + s228 + s229 + s230 + s231 + s232 + s233 + s234 + s235 + s236 + s237 + s238 + s239 + s240 + s241 + s242 + s243 + s244 + s245 + s246 + s247 + s248 + s249 + s250 + s251 + s252 + s253 + s254 + s255 + s256 + s257 + s259 + s260 + s261 + s262 + s263 + s264 + s265 + s266 + s267 + s268 + s269 + s270 + s271 + s272 + s273 + s274 + s275 + s276 + s277 + s278 + s279 + s280 + s281 + s282 + s283 + s284 + s285 + s286 + s287 + s288 + s289 + s290 + s291 + s292 + s293 + s294 + s295 + s296 + s297 + s298 + s299 + s302 + s303 - c0 >= 0
index_1: s299 + s302 - c1 >= 0
index_2: s61 + s203 + s221 + s225 + s265 + s269 - c2 >= 0
index_3: s25 + s205 + s218 + s227 + s233 + s239 + s240 + s262 + s271 + s278 + s284 + s285 - c3 >= 0
index_4: s8 + s55 + s67 + s71 + s73 + s77 + s95 + s105 + s130 - c4 >= 0
index_5: s105 + s111 + s169 + s175 - c5 >= 0
index_6: s106 + s113 + s117 + s137 + s170 + s177 + s181 + s198 - c6 >= 0
index_7: s127 + s191 - c7 >= 0
index_8: s65 + s66 + s120 + s184 + s222 + s244 + s266 + s289 - c8 >= 0
index_9: s91 + s92 + s154 - c9 >= 0
index_10: s1 + s32 + s33 + s39 + s42 + s44 + s45 + s97 + s160 + s206 + s245 + s296 - c10 >= 0
index_11: s19 + s36 + s42 + s219 + s245 + s263 + s290 - c11 >= 0
index_12: s13 + s57 + s101 + s164 - c12 >= 0
index_13: s9 + s11 + s12 + s13 + s18 + s26 + s28 + s33 + s53 + s64 + s69 + s70 + s71 + s72 + s115 + s121 + s179 + s185 + s216 + s240 + s246 + s259 + s285 + s291 + s298 - c13 >= 0
index_14: s90 + s93 + s104 + s152 + s155 + s167 + s211 + s255 - c14 >= 0
index_15: s229 + s242 + s243 + s273 + s287 + s288 - c15 >= 0
index_16: s4 + s5 + s6 + s10 + s11 + s14 + s15 + s20 + s24 + s25 + s35 + s54 + s57 + s64 + s66 + s68 + s69 + s80 + s82 + s84 + s87 + s88 + s91 + s92 + s93 + s96 + s99 + s105 + s107 + s116 + s117 + s121 + s122 + s123 + s124 + s125 + s128 + s132 + s133 + s136 + s137 + s138 + s141 + s142 + s144 + s146 + s149 + s150 + s153 + s154 + s155 + s159 + s162 + s168 + s171 + s180 + s181 + s185 + s186 + s187 + s188 + s189 + s192 + s194 + s195 + s198 + s199 + s202 + s205 + s207 + s211 + s217 + s218 + s223 + s224 + s225 + s227 + s228 + s230 + s231 + s233 + s236 + s239 + s240 + s242 + s243 + s244 + s245 + s246 + s248 + s251 + s255 + s260 + s261 + s262 + s267 + s268 + s269 + s271 + s272 + s274 + s275 + s276 + s278 + s281 + s284 + s285 + s287 + s288 + s289 + s290 + s291 + s293 + s298 - c16 >= 0
index_17: s10 + s32 + s222 + s237 + s243 + s266 + s282 + s288 - c17 >= 0
index_18: s9 + s13 + s14 + s15 + s54 + s55 + s57 + s60 + s61 + s63 + s64 + s65 + s66 + s74 + s75 + s100 + s104 + s110 + s116 + s163 + s167 + s174 + s180 + s217 + s260 - c18 >= 0
index_19: s54 + s100 + s110 + s116 + s163 + s174 + s180 + s217 + s260 - c19 >= 0
index_20: s55 + s57 + s61 + s63 + s64 + s65 + s74 + s75 - c20 >= 0
index_21: s85 + s89 + s103 + s109 + s129 + s136 + s147 + s151 + s160 + s166 + s173 + s193 - c21 >= 0
index_22: s10 + s62 + s70 + s91 + s97 + s153 + s160 - c22 >= 0
index_23: s10 + s62 + s70 + s91 + s97 + s153 + s160 - c23 >= 0
index_24: s45 + s86 + s99 + s111 + s129 + s148 + s162 + s175 + s193 - c24 >= 0
index_25: s58 + s69 + s101 + s104 + s164 + s167 - c25 >= 0
index_26: s236 + s239 + s243 + s249 + s281 + s284 + s288 + s292 + s294 - c26 >= 0
index_27: s118 + s140 + s141 + s182 + s202 + s242 + s243 + s287 - c27 >= 0
index_28: s24 + s81 + s101 + s143 + s277 - c28 >= 0
index_29: s40 + s81 + s143 + s210 + s254 + s289 - c29 >= 0
index_30: s38 + s39 + s40 + s43 + s44 + s51 - c30 >= 0
index_31: s93 + s155 + s207 + s211 + s251 + s255 - c31 >= 0
index_32: s225 + s226 + s239 + s269 + s270 + s284 - c32 >= 0
index_33: s37 + s206 + s218 + s220 + s262 + s264 + s296 - c33 >= 0
index_34: s54 + s80 + s96 + s142 + s159 + s208 + s252 - c34 >= 0
index_35: s45 + s47 + s48 + s219 + s234 + s245 + s263 + s279 + s290 + s295 - c35 >= 0
index_36: s25 + s35 + s40 + s47 + s203 + s205 + s218 + s233 + s247 + s262 + s278 + s292 - c36 >= 0
index_37: s89 + s99 + s151 + s154 + s162 - c37 >= 0
index_38: s250 + s294 + s295 + s296 - c38 >= 0
index_39: s13 + s62 + s64 + s73 + s79 + s105 + s111 + s169 - c39 >= 0
index_40: s19 + s36 + s81 + s90 + s105 + s106 + s112 + s117 + s143 + s152 + s168 + s170 + s176 + s181 + s205 + s219 + s228 + s248 + s263 + s272 + s293 - c40 >= 0
index_41: s55 + s58 + s97 + s113 + s160 + s177 - c41 >= 0
index_42: s31 + s224 + s228 + s231 + s243 + s268 + s276 + s288 - c42 >= 0
index_43: s17 + s20 + s25 + s65 + s69 + s122 + s124 + s127 + s133 + s186 + s188 + s191 + s195 + s203 + s205 + s227 + s235 + s240 + s250 + s260 + s271 + s280 + s285 + s295 + s298 - c43 >= 0
index_44: s1 + s50 + s52 + s57 + s60 + s63 + s67 + s79 + s135 + s196 + s208 + s218 + s252 + s262 + s296 - c44 >= 0
index_45: s39 + s46 + s49 + s51 + s130 + s212 + s238 + s241 + s249 + s256 + s283 + s286 + s294 - c45 >= 0
index_46: s1 + s50 + s54 + s56 + s203 + s218 + s262 + s298 - c46 >= 0
index_47: s27 + s32 + s45 + s47 + s48 + s130 + s203 + s219 + s220 + s234 + s240 + s245 + s263 + s279 + s285 + s290 + s295 - c47 >= 0
index_48: s4 + s6 + s39 + s86 + s96 + s99 + s105 + s106 + s110 + s116 + s124 + s136 + s148 + s157 + s162 + s169 + s170 + s174 + s177 + s180 + s188 + s197 + s215 + s221 + s228 + s242 + s272 + s287 - c48 >= 0
index_49: s122 + s186 + s203 + s205 + s227 + s240 + s271 + s285 - c49 >= 0
index_50: s51 + s122 + s186 + s195 + s203 + s205 + s216 + s227 + s240 + s271 + s285 - c50 >= 0
index_51: s2 + s4 + s6 + s32 + s99 + s105 + s106 + s107 + s109 + s110 + s113 + s116 + s162 + s169 + s170 + s171 + s173 + s174 + s177 + s180 - c51 >= 0
index_52: s6 + s32 + s117 + s177 + s228 + s269 + s272 - c52 >= 0
index_53: s15 + s16 + s17 + s20 + s21 + s25 + s29 + s30 + s65 + s66 + s67 + s68 + s69 + s70 + s74 + s77 + s79 + s81 + s84 + s88 + s91 + s104 + s105 + s106 + s118 + s121 + s122 + s123 + s124 + s128 + s131 + s132 + s133 + s143 + s146 + s150 + s153 + s167 + s169 + s170 + s182 + s185 + s186 + s187 + s188 + s192 + s194 + s195 + s204 + s209 + s212 + s216 + s217 + s224 + s225 + s227 + s231 + s236 + s239 + s240 + s244 + s254 + s256 + s259 + s261 + s268 + s269 + s271 + s275 + s281 + s284 + s285 + s289 + s298 - c53 >= 0
index_54: s97 + s144 + s160 + s243 + s266 + s288 - c54 >= 0
index_55: s43 + s97 + s137 + s160 + s194 + s198 + s235 - c55 >= 0
index_56: s216 + s226 + s237 + s259 + s270 - c56 >= 0
index_57: s80 + s81 + s82 + s93 + s97 + s142 + s143 + s144 + s155 + s160 + s208 + s252 - c57 >= 0
index_58: s11 + s17 + s34 + s96 + s113 + s118 + s157 + s177 + s182 + s209 + s214 + s218 + s224 + s225 + s227 + s230 + s231 + s253 + s258 + s262 + s268 + s269 + s271 + s274 + s275 + s298 - c58 >= 0
index_59: s52 + s60 + s81 + s143 + s208 + s233 + s235 + s238 + s252 + s276 + s278 + s280 + s283 - c59 >= 0
index_60: s206 + s233 + s235 + s236 + s278 + s280 + s281 - c60 >= 0
index_61: s101 + s152 + s164 - c61 >= 0
index_62: s3 + s5 + s9 + s101 + s133 + s164 + s195 + s298 - c62 >= 0
index_63: s82 + s88 + s91 + s144 + s150 + s153 + s155 + s212 + s256 - c63 >= 0
index_64: s22 + s27 + s45 + s50 + s58 + s64 + s77 + s81 + s143 + s231 + s245 + s276 + s290 + s297 - c64 >= 0
index_65: s91 + s117 + s153 + s181 - c65 >= 0
index_66: s24 + s50 + s124 + s188 + s195 + s249 + s275 + s294 + s298 - c66 >= 0
index_67: s45 + s101 + s103 + s164 + s166 + s234 + s279 - c67 >= 0
index_68: s90 + s93 + s152 + s155 - c68 >= 0
index_69: s117 + s177 + s181 + s224 + s231 + s237 + s268 + s275 + s276 + s282 - c69 >= 0
index_70: s65 + s218 + s222 + s231 + s250 + s262 + s266 + s276 + s295 - c70 >= 0
index_71: s1 + s3 + s32 + s56 + s96 + s97 + s110 + s128 + s157 + s160 + s174 + s192 + s215 + s231 + s248 + s258 + s275 + s293 + s296 - c71 >= 0
index_72: s54 + s84 + s106 + s109 + s110 + s111 + s113 + s128 + s137 + s146 + s149 + s170 + s173 + s174 + s175 + s177 + s192 + s198 + s215 + s216 + s221 + s231 + s248 + s258 + s259 + s265 + s275 + s293 - c72 >= 0
index_73: s7 + s35 + s66 + s185 + s226 + s245 + s270 + s290 - c73 >= 0
index_74: s18 + s21 + s22 + s23 + s49 + s54 + s132 + s133 + s195 + s238 + s244 + s283 + s289 + s296 + s297 - c74 >= 0
index_75: s86 + s133 + s140 + s148 + s195 + s201 + s231 + s275 - c75 >= 0
index_76: s117 + s120 + s132 + s140 + s181 + s194 + s201 + s222 + s230 + s231 + s242 + s243 + s244 + s245 + s266 + s274 + s275 + s287 + s288 + s289 + s290 + s291 - c76 >= 0
index_77: s116 + s180 + s221 + s228 + s265 + s272 - c77 >= 0
index_78: s66 + s111 + s118 + s121 + s122 + s132 + s137 + s175 + s182 + s185 + s186 + s194 + s198 + s215 + s216 + s229 + s230 + s243 + s258 + s259 + s273 + s274 + s288 - c78 >= 0
index_79: s118 + s121 + s123 + s132 + s133 + s134 + s182 + s185 + s187 + s194 + s195 + s229 + s243 + s244 + s273 + s288 + s289 - c79 >= 0
index_80: s41 + s97 + s160 + s210 + s220 + s222 + s243 + s254 + s288 - c80 >= 0
index_81: s25 + s35 + s40 + s47 + s203 + s205 + s218 + s233 + s247 + s262 + s278 + s292 - c81 >= 0
index_82: s3 + s4 + s6 + s25 + s31 + s56 + s63 + s65 + s72 + s77 + s79 + s81 + s87 + s93 + s94 + s96 + s104 + s106 + s111 + s117 + s120 + s124 + s128 + s143 + s149 + s155 + s156 + s157 + s167 + s170 + s175 + s181 + s184 + s188 + s192 + s210 + s212 + s215 + s216 + s217 + s222 + s223 + s225 + s244 + s254 + s256 + s258 + s259 + s261 + s266 + s267 + s269 + s289 - c82 >= 0
index_83: s4 + s5 + s6 + s7 + s8 + s11 + s14 + s15 + s20 + s21 + s22 + s23 + s24 + s25 + s35 + s54 + s57 + s64 + s66 + s68 + s69 + s80 + s84 + s85 + s87 + s88 + s90 + s91 + s92 + s93 + s94 + s95 + s96 + s99 + s105 + s107 + s116 + s117 + s121 + s122 + s123 + s124 + s125 + s127 + s128 + s132 + s133 + s136 + s137 + s138 + s141 + s142 + s146 + s147 + s149 + s150 + s152 + s153 + s154 + s155 + s156 + s157 + s159 + s162 + s168 + s171 + s180 + s181 + s185 + s186 + s187 + s188 + s189 + s191 + s192 + s194 + s195 + s198 + s199 + s202 + s205 + s207 + s208 + s211 + s213 + s215 + s217 + s218 + s221 + s222 + s224 + s225 + s227 + s228 + s229 + s230 + s231 + s233 + s236 + s239 + s240 + s242 + s244 + s245 + s246 + s248 + s251 + s252 + s255 + s257 + s260 + s261 + s262 + s265 + s266 + s268 + s269 + s271 + s272 + s273 + s274 + s275 + s276 + s278 + s281 + s284 + s285 + s287 + s289 + s290 + s291 + s293 + s298 - c83 >= 0
index_84: s12 + s54 + s82 + s93 + s122 + s144 + s155 + s177 + s186 + s207 + s231 + s237 + s251 + s275 + s282 - c84 >= 0
index_85: s114 + s116 + s118 + s178 + s180 + s182 - c85 >= 0
index_86: s4 + s5 + s6 + s8 + s11 + s14 + s15 + s19 + s20 + s23 + s24 + s25 + s31 + s35 + s54 + s57 + s64 + s66 + s68 + s69 + s80 + s82 + s84 + s85 + s87 + s88 + s90 + s91 + s92 + s93 + s94 + s96 + s99 + s105 + s107 + s116 + s117 + s121 + s122 + s123 + s124 + s125 + s128 + s132 + s133 + s136 + s137 + s138 + s141 + s142 + s144 + s146 + s147 + s149 + s150 + s152 + s153 + s154 + s155 + s156 + s157 + s159 + s162 + s168 + s171 + s180 + s181 + s185 + s186 + s187 + s188 + s189 + s192 + s194 + s195 + s198 + s199 + s202 + s205 + s207 + s211 + s213 + s217 + s218 + s224 + s225 + s227 + s228 + s230 + s231 + s233 + s236 + s239 + s240 + s242 + s244 + s245 + s246 + s248 + s251 + s255 + s257 + s260 + s261 + s262 + s268 + s269 + s271 + s272 + s274 + s275 + s276 + s278 + s281 + s284 + s285 + s287 + s289 + s290 + s291 + s293 - c86 >= 0
index_87: s19 + s212 + s228 + s229 + s238 + s241 + s242 + s256 + s272 + s273 + s283 + s286 + s287 - c87 >= 0
index_88: s53 + s69 + s71 + s72 + s115 + s121 + s179 + s185 - c88 >= 0
index_89: s2 + s4 + s5 + s32 + s85 + s100 + s106 + s147 + s163 + s170 + s243 + s247 + s250 + s261 + s288 + s292 + s295 - c89 >= 0
index_90: s116 + s180 + s221 + s228 + s265 + s272 - c90 >= 0
index_91: s24 + s208 + s220 + s250 + s260 + s295 + s296 - c91 >= 0
index_92: s36 + s85 + s111 + s112 + s113 + s175 + s177 + s216 + s220 + s241 + s259 + s263 + s286 + s294 - c92 >= 0
index_93: s15 + s32 + s126 + s182 + s190 - c93 >= 0
index_94: s38 + s47 + s49 + s86 + s295 + s297 - c94 >= 0
index_95: s25 + s65 + s77 + s79 + s135 + s137 + s198 + s228 + s229 + s231 + s241 + s242 + s244 + s272 + s273 + s275 + s286 + s287 + s289 - c95 >= 0
index_96: s44 + s228 + s238 + s245 + s272 + s283 + s290 - c96 >= 0
index_97: s71 + s114 + s116 + s118 + s178 + s180 + s182 + s222 + s247 + s266 + s291 + s292 - c97 >= 0
index_98: s3 + s4 + s6 + s25 + s31 + s56 + s62 + s63 + s64 + s65 + s71 + s72 + s77 + s79 + s81 + s87 + s93 + s94 + s96 + s103 + s104 + s106 + s111 + s117 + s120 + s124 + s128 + s136 + s138 + s143 + s149 + s155 + s156 + s157 + s166 + s167 + s170 + s175 + s181 + s184 + s188 + s192 + s199 + s210 + s212 + s215 + s216 + s217 + s222 + s223 + s225 + s244 + s254 + s256 + s258 + s259 + s261 + s266 + s267 + s269 + s289 - c98 >= 0
index_99: s114 + s116 + s118 + s178 + s180 + s182 - c99 >= 0
index_100: s2 + s3 + s5 + s6 + s13 + s25 + s32 + s35 + s57 + s61 + s65 + s77 + s79 + s90 + s97 + s98 + s100 + s101 + s102 + s103 + s105 + s106 + s109 + s110 + s111 + s113 + s114 + s116 + s117 + s118 + s135 + s136 + s137 + s138 + s152 + s158 + s160 + s161 + s163 + s164 + s165 + s166 + s169 + s170 + s173 + s174 + s175 + s177 + s178 + s180 + s181 + s182 + s198 + s199 + s222 + s228 + s229 + s230 + s231 + s241 + s242 + s243 + s244 + s266 + s272 + s273 + s274 + s275 + s286 + s287 + s288 + s289 + s298 - c100 >= 0
index_101: s0 + s2 + s4 + s10 + s13 + s14 + s29 + s61 + s85 + s86 + s89 + s90 + s92 + s93 + s96 + s100 + s101 + s103 + s104 + s105 + s106 + s109 + s110 + s113 + s116 + s117 + s118 + s119 + s136 + s147 + s148 + s151 + s152 + s154 + s155 + s157 + s163 + s164 + s166 + s167 + s168 + s169 + s170 + s173 + s174 + s177 + s180 + s181 + s182 + s183 + s196 + s197 + s208 + s212 + s213 + s215 + s228 + s230 + s237 + s243 + s244 + s247 + s252 + s256 + s257 + s258 + s261 + s272 + s274 + s282 + s288 + s289 + s292 - c101 >= 0
index_102: s33 + s66 + s85 + s92 + s97 + s104 + s118 + s125 + s147 + s154 + s160 + s167 + s181 + s189 + s195 + s212 + s213 + s216 + s223 + s256 + s257 + s259 + s267 - c102 >= 0
index_103: s37 + s52 + s54 + s62 + s66 + s81 + s82 + s84 + s87 + s88 + s92 + s96 + s104 + s143 + s144 + s146 + s147 + s149 + s150 + s154 + s159 + s167 - c103 >= 0
index_104: s22 + s229 + s239 + s242 + s260 + s273 + s284 + s287 - c104 >= 0
index_105: s82 + s88 + s144 + s150 + s212 + s256 - c105 >= 0
index_106: s89 + s90 + s92 + s152 + s154 + s212 + s215 + s257 + s258 + s259 - c106 >= 0
index_107: s105 + s111 + s169 + s175 + s213 - c107 >= 0
index_108: s64 + s70 + s73 + s90 + s152 + s220 - c108 >= 0
index_109: s0 + s10 + s24 + s28 + s31 + s32 + s53 + s121 + s196 + s216 + s222 + s223 + s229 + s230 + s237 + s242 + s243 + s247 + s250 + s259 + s266 + s273 + s274 + s282 + s287 + s288 + s292 + s295 - c109 >= 0
index_110: s0 + s1 + s11 + s18 + s28 + s30 + s31 + s32 + s41 + s46 + s53 + s82 + s121 + s133 + s144 + s155 + s185 + s203 + s210 + s216 + s220 + s222 + s240 + s243 + s247 + s250 + s254 + s259 + s264 + s266 + s285 + s288 + s291 + s292 + s295 + s297 + s299 + s302 - c110 >= 0
index_111: s12 + s32 + s81 + s143 + s208 + s210 + s211 + s240 + s252 + s254 + s255 + s285 - c111 >= 0
index_112: s43 + s45 + s46 + s52 + s111 + s175 + s205 + s211 + s218 + s225 + s227 + s233 + s239 + s242 + s244 + s245 + s262 + s269 + s271 + s278 + s284 + s287 + s291 + s292 + s296 + s297 - c112 >= 0
index_113: s11 + s12 + s17 + s18 + s19 + s20 + s23 + s54 + s56 + s57 + s60 + s61 + s63 + s67 + s79 + s80 + s81 + s95 + s100 + s105 + s135 + s142 + s143 + s156 + s163 + s168 + s196 + s203 + s205 + s217 + s227 + s228 + s240 + s248 + s261 + s271 + s272 + s285 + s291 + s293 + s297 + s298 - c113 >= 0
index_114: s85 + s123 + s124 + s147 + s187 + s188 - c114 >= 0
index_115: s25 + s40 + s47 + s122 + s203 + s218 + s221 + s226 + s233 + s262 + s264 + s265 + s270 + s278 - c115 >= 0
index_116: s25 + s40 + s47 + s203 + s205 + s218 + s233 + s234 + s247 + s262 + s278 + s279 + s292 - c116 >= 0
index_117: s5 + s32 + s100 + s106 + s163 + s170 + s243 + s285 + s288 - c117 >= 0
index_118: s22 + s27 + s56 + s238 + s245 + s256 + s283 + s290 + s295 + s296 - c118 >= 0
index_119: s15 + s29 + s33 + s56 + s66 + s85 + s118 + s123 + s147 + s182 + s187 + s216 + s223 + s225 + s240 + s244 + s259 + s267 + s269 + s285 + s289 - c119 >= 0
index_120: s3 + s4 + s6 + s25 + s65 + s77 + s79 + s81 + s94 + s96 + s97 + s104 + s106 + s110 + s118 + s128 + s138 + s143 + s156 + s157 + s160 + s167 + s170 + s174 + s182 + s192 + s199 + s212 + s215 + s216 + s217 + s231 + s244 + s254 + s256 + s258 + s259 + s261 + s275 + s289 - c120 >= 0
index_121: s60 + s62 + s64 + s68 + s70 + s73 + s81 + s143 - c121 >= 0
index_122: s29 + s84 + s87 + s146 + s149 + s222 + s266 - c122 >= 0
index_123: s24 + s45 + s47 + s81 + s143 + s208 + s232 + s234 + s240 + s245 + s252 + s277 + s279 + s285 + s290 + s292 + s294 + s296 - c123 >= 0
index_124: s11 + s17 + s29 + s50 + s52 + s66 + s90 + s107 + s111 + s112 + s113 + s118 + s121 + s124 + s127 + s152 + s171 + s175 + s177 + s182 + s185 + s188 + s203 + s211 + s212 + s218 + s220 + s222 + s225 + s226 + s229 + s230 + s231 + s235 + s237 + s238 + s240 + s242 + s244 + s247 + s248 + s250 + s255 + s256 + s260 + s261 + s266 + s268 + s269 + s270 + s274 + s275 + s276 + s282 + s283 + s285 + s287 + s289 + s291 + s292 + s293 + s295 + s296 + s298 - c124 >= 0
index_125: s23 + s123 + s133 + s187 + s195 - c125 >= 0
index_126: s7 + s84 + s87 + s89 + s103 + s106 + s117 + s121 + s146 + s149 + s151 + s166 + s170 + s181 + s197 + s210 + s223 + s229 + s231 + s242 + s244 + s254 + s267 + s273 + s275 + s287 + s289 - c126 >= 0
index_127: s19 + s22 + s23 + s105 + s106 + s107 + s118 + s133 + s134 + s137 + s140 + s168 + s170 + s171 + s195 + s198 + s201 + s230 + s231 + s248 + s274 + s275 + s293 - c127 >= 0
index_128: s54 + s55 + s57 + s63 + s66 + s67 + s71 + s74 + s75 + s77 + s229 + s238 + s273 + s283 - c128 >= 0
index_129: s47 + s81 + s91 + s92 + s136 + s143 + s153 + s154 + s252 + s292 - c129 >= 0
index_130: s39 + s46 + s49 + s51 + s212 + s238 + s249 + s256 + s283 + s286 + s294 - c130 >= 0
index_131: s84 + s87 + s96 + s112 + s146 + s149 + s166 + s219 + s220 + s223 + s224 + s240 + s263 + s267 + s268 + s285 + s295 - c131 >= 0
index_132: s56 + s206 + s211 + s218 + s220 + s235 + s248 + s249 + s255 + s262 + s264 + s280 + s293 + s294 + s295 + s296 + s297 - c132 >= 0
index_133: s47 + s205 + s211 + s232 + s233 + s238 + s245 + s246 + s248 + s249 + s255 + s277 + s278 + s283 + s290 + s291 + s293 + s294 - c133 >= 0
index_134: s181 + s216 + s220 + s235 + s245 + s249 + s276 + s280 + s290 + s294 - c134 >= 0
index_135: s87 + s91 + s93 + s104 + s149 + s155 + s167 + s205 + s217 + s235 + s260 + s263 - c135 >= 0
index_136: s29 + s105 + s117 + s118 + s168 + s181 + s182 + s220 + s221 + s224 + s225 + s228 + s237 + s238 + s239 + s240 + s241 + s244 + s254 + s264 + s265 + s268 + s269 + s272 + s282 + s283 + s284 + s285 + s286 + s289 - c136 >= 0
index_137: s221 + s222 + s237 + s265 + s266 + s267 + s295 - c137 >= 0
index_138: s44 + s56 + s207 + s208 + s211 + s212 + s238 + s245 + s251 + s252 + s255 + s256 + s278 + s283 + s290 + s296 - c138 >= 0
index_139: s15 + s17 + s65 + s96 + s105 + s110 + s114 + s118 + s119 + s167 + s168 + s170 + s174 + s178 + s182 + s183 + s196 + s210 + s224 + s228 + s236 + s244 + s247 + s254 + s268 + s270 + s272 + s281 + s289 + s292 - c139 >= 0
index_140: s37 + s55 + s57 + s58 + s62 + s64 + s65 + s67 + s69 + s71 + s73 + s77 + s79 + s122 + s182 + s192 - c140 >= 0
index_141: s104 + s105 + s167 - c141 >= 0
index_142: s22 + s133 + s195 + s208 + s218 + s222 + s252 + s262 + s266 + s275 - c142 >= 0
index_143: s4 + s9 + s10 + s42 + s93 + s104 + s118 + s124 + s150 + s155 + s167 + s182 + s188 + s207 + s213 + s217 + s222 + s223 + s229 + s234 + s235 + s238 + s241 + s251 + s257 + s260 + s261 + s262 + s266 + s267 + s273 + s279 + s283 + s286 + s296 - c143 >= 0
index_144: s81 + s98 + s125 + s138 + s161 + s199 - c144 >= 0
index_145: s0 + s1 + s2 + s3 + s4 + s5 + s6 + s7 + s8 + s9 + s10 + s11 + s12 + s13 + s14 + s15 + s17 + s18 + s19 + s22 + s23 + s24 + s25 + s26 + s28 + s29 + s30 + s31 + s32 + s33 + s35 + s36 + s37 + s38 + s39 + s40 + s41 + s42 + s43 + s44 + s45 + s46 + s47 + s48 + s49 + s50 + s51 + s52 + s53 + s54 + s55 + s56 + s57 + s60 + s61 + s62 + s63 + s64 + s65 + s66 + s67 + s68 + s69 + s70 + s71 + s72 + s73 + s74 + s75 + s76 + s79 + s80 + s81 + s82 + s83 + s84 + s86 + s87 + s88 + s89 + s90 + s91 + s92 + s93 + s94 + s95 + s96 + s97 + s98 + s99 + s100 + s101 + s102 + s103 + s104 + s105 + s106 + s107 + s108 + s109 + s110 + s111 + s112 + s113 + s114 + s115 + s116 + s117 + s118 + s119 + s120 + s121 + s122 + s123 + s125 + s126 + s127 + s128 + s129 + s130 + s131 + s132 + s133 + s134 + s135 + s136 + s137 + s139 + s141 + s142 + s143 + s144 + s145 + s146 + s148 + s149 + s150 + s151 + s152 + s153 + s154 + s155 + s156 + s158 + s159 + s160 + s161 + s162 + s163 + s164 + s165 + s166 + s167 + s168 + s169 + s170 + s171 + s172 + s173 + s174 + s175 + s176 + s177 + s178 + s179 + s180 + s181 + s182 + s183 + s184 + s185 + s186 + s187 + s189 + s190 + s191 + s192 + s193 + s194 + s195 + s196 + s197 + s198 + s200 + s202 + s203 + s204 + s205 + s206 + s207 + s208 + s210 + s211 + s212 + s213 + s215 + s216 + s217 + s218 + s219 + s220 + s221 + s222 + s223 + s224 + s225 + s226 + s227 + s228 + s229 + s230 + s231 + s232 + s233 + s234 + s235 + s236 + s237 + s238 + s239 + s240 + s241 + s242 + s243 + s244 + s245 + s246 + s247 + s248 + s249 + s250 + s251 + s252 + s254 + s255 + s256 + s257 + s258 + s259 + s260 + s261 + s262 + s263 + s264 + s265 + s266 + s267 + s268 + s269 + s270 + s271 + s272 + s273 + s274 + s275 + s276 + s277 + s278 + s279 + s280 + s281 + s282 + s283 + s284 + s285 + s286 + s287 + s288 + s289 + s290 + s291 + s292 + s293 + s294 + s295 + s296 + s297 + s298 + s299 + s300 + s301 - c145 >= 0
index_146: s10 + s62 + s70 + s91 + s97 + s153 + s160 - c146 >= 0
index_147: s3 + s9 + s10 + s16 + s17 + s24 + s26 + s36 + s37 + s42 + s56 + s66 + s68 + s106 + s118 + s124 + s133 + s170 + s182 + s188 + s195 + s203 + s207 + s213 + s219 + s222 + s223 + s234 + s235 + s241 + s245 + s251 + s257 + s261 + s263 + s266 + s267 + s279 + s286 + s290 + s296 - c147 >= 0
index_148: s11 + s23 + s217 + s218 + s222 + s241 + s260 + s262 + s266 + s267 + s286 - c148 >= 0
index_149: s60 + s61 + s64 + s68 + s73 + s81 + s143 + s208 + s238 + s252 - c149 >= 0
index_150: s3 + s9 + s10 + s38 + s42 + s46 + s88 + s91 + s93 + s104 + s118 + s124 + s150 + s153 + s155 + s159 + s167 + s177 + s182 + s188 + s203 + s207 + s213 + s217 + s218 + s219 + s222 + s229 + s234 + s235 + s238 + s241 + s247 + s251 + s257 + s260 + s261 + s262 + s263 + s266 + s267 + s273 + s279 + s283 + s286 + s291 + s292 + s296 + s297 - c150 >= 0
index_151: s1 + s4 + s9 + s10 + s14 + s36 + s42 + s46 + s101 + s118 + s143 + s164 + s182 + s223 + s234 + s235 + s249 + s261 + s267 + s279 + s294 - c151 >= 0
index_152: s5 + s82 + s153 + s163 + s230 + s262 - c152 >= 0
index_153: s2 + s46 + s106 + s170 + s181 + s216 + s223 + s226 + s229 + s230 + s231 + s242 + s244 + s259 + s267 + s270 + s273 + s274 + s275 + s287 + s289 + s293 - c153 >= 0
index_154: s0 + s41 + s71 + s219 + s220 + s243 + s288 - c154 >= 0
index_155: s93 + s155 + s229 + s230 + s242 + s243 + s273 + s274 + s287 + s288 - c155 >= 0
index_156: s8 + s12 + s13 + s15 + s17 + s18 + s20 + s22 + s26 + s29 + s54 + s56 + s57 + s60 + s61 + s63 + s65 + s66 + s67 + s68 + s74 + s75 + s77 + s79 + s80 + s81 + s82 + s84 + s86 + s87 + s88 + s89 + s90 + s91 + s92 + s93 + s94 + s95 + s96 + s97 + s98 + s99 + s100 + s101 + s102 + s103 + s104 + s105 + s106 + s107 + s109 + s110 + s111 + s114 + s117 + s118 + s124 + s127 + s133 + s135 + s138 + s142 + s143 + s144 + s146 + s148 + s149 + s150 + s151 + s152 + s153 + s154 + s155 + s156 + s157 + s158 + s159 + s160 + s161 + s162 + s163 + s164 + s165 + s166 + s167 + s168 + s169 + s170 + s171 + s173 + s174 + s175 + s177 + s178 + s180 + s181 + s182 + s188 + s194 + s195 + s196 + s199 + s203 + s205 + s207 + s208 + s212 + s213 + s215 + s217 + s218 + s221 + s222 + s228 + s229 + s230 + s231 + s238 + s241 + s242 + s246 + s251 + s252 + s256 + s257 + s258 + s260 + s261 + s262 + s265 + s266 + s272 + s273 + s274 + s275 + s283 + s286 + s287 + s291 + s293 + s298 - c156 >= 0
index_157: s50 + s54 + s262 - c157 >= 0
length: 113 s0 + 101 s1 + 93 s2 + 116 s3 + 114 s4 + 209 s5 + 113 s6 + 99 s7 + 84 s8 + 104 s9 + 100 s10 + 178 s11 + 117 s12 + 125 s13 + 73 s14 + 140 s15 + 24 s16 + 104 s17 + 88 s18 + 157 s19 + 45 s20 + 71 s21 + 127 s22 + 134 s23 + 138 s24 + 106 s25 + 32 s26 + 75 s27 + 119 s28 + 193 s29 + 109 s30 + 164 s31 + 211 s32 + 109 s33 + 7 s34 + 180 s35 + 118 s36 + 124 s37 + 117 s38 + 116 s39 + 99 s40 + 52 s41 + 86 s42 + 79 s43 + 95 s44 + 137 s45 + 109 s46 + 101 s47 + 48 s48 + 111 s49 + 142 s50 + 41 s51 + 110 s52 + 84 s53 + 458 s54 + 90 s55 + 137 s56 + 121 s57 + 69 s58 + 1 s59 + 73 s60 + 120 s61 + 81 s62 + 89 s63 + 136 s64 + 138 s65 + 194 s66 + 58 s67 + 141 s68 + 134 s69 + 75 s70 + 98 s71 + 104 s72 + 155 s73 + 119 s74 + 88 s75 + 67 s76 + 137 s77 + 18 s78 + 147 s79 + 77 s80 + 233 s81 + 160 s82 + 1 s83 + 56 s84 + 79 s85 + 74 s86 + 72 s87 + 76 s88 + 49 s89 + 178 s90 + 139 s91 + 82 s92 + 139 s93 + 95 s94 + 100 s95 + 148 s96 + 128 s97 + 62 s98 + 75 s99 + 69 s100 + 224 s101 + 12 s102 + 117 s103 + 158 s104 + 194 s105 + 194 s106 + 97 s107 + 1 s108 + 56 s109 + 113 s110 + 233 s111 + 68 s112 + 140 s113 + 64 s114 + 18 s115 + 140 s116 + 235 s117 + 186 s118 + 54 s119 + 39 s120 + 147 s121 + 93 s122 + 59 s123 + 121 s124 + 74 s125 + 11 s126 + 81 s127 + 132 s128 + 47 s129 + 37 s130 + 44 s131 + 65 s132 + 211 s133 + 23 s134 + 40 s135 + 101 s136 + 102 s137 + 119 s138 + 10 s139 + 46 s140 + 67 s141 + 77 s142 + 233 s143 + 160 s144 + 1 s145 + 56 s146 + 79 s147 + 74 s148 + 72 s149 + 76 s150 + 49 s151 + 178 s152 + 139 s153 + 82 s154 + 139 s155 + 143 s156 + 111 s157 + 12 s158 + 65 s159 + 128 s160 + 62 s161 + 75 s162 + 69 s163 + 224 s164 + 12 s165 + 117 s166 + 158 s167 + 85 s168 + 110 s169 + 194 s170 + 97 s171 + 1 s172 + 56 s173 + 94 s174 + 233 s175 + 16 s176 + 192 s177 + 64 s178 + 18 s179 + 140 s180 + 235 s181 + 186 s182 + 54 s183 + 39 s184 + 147 s185 + 93 s186 + 59 s187 + 121 s188 + 74 s189 + 11 s190 + 81 s191 + 132 s192 + 47 s193 + 65 s194 + 211 s195 + 121 s196 + 58 s197 + 102 s198 + 119 s199 + 10 s200 + 46 s201 + 67 s202 + 148 s203 + 36 s204 + 162 s205 + 119 s206 + 83 s207 + 155 s208 + 13 s209 + 126 s210 + 125 s211 + 145 s212 + 142 s213 + 7 s214 + 109 s215 + 128 s216 + 133 s217 + 204 s218 + 96 s219 + 191 s220 + 100 s221 + 251 s222 + 143 s223 + 91 s224 + 134 s225 + 102 s226 + 95 s227 + 168 s228 + 135 s229 + 153 s230 + 229 s231 + 98 s232 + 108 s233 + 155 s234 + 144 s235 + 74 s236 + 113 s237 + 131 s238 + 102 s239 + 255 s240 + 108 s241 + 127 s242 + 211 s243 + 161 s244 + 181 s245 + 55 s246 + 167 s247 + 152 s248 + 95 s249 + 165 s250 + 83 s251 + 155 s252 + 7 s253 + 132 s254 + 125 s255 + 145 s256 + 142 s257 + 69 s258 + 128 s259 + 117 s260 + 157 s261 + 204 s262 + 96 s263 + 75 s264 + 100 s265 + 251 s266 + 143 s267 + 91 s268 + 134 s269 + 102 s270 + 95 s271 + 168 s272 + 135 s273 + 153 s274 + 168 s275 + 102 s276 + 98 s277 + 108 s278 + 155 s279 + 63 s280 + 74 s281 + 113 s282 + 131 s283 + 102 s284 + 255 s285 + 108 s286 + 127 s287 + 211 s288 + 161 s289 + 181 s290 + 125 s291 + 177 s292 + 152 s293 + 95 s294 + 250 s295 + 209 s296 + 134 s297 + 184 s298 + 226 s299 + 1 s300 + 1 s301 + 97 s302 + 1 s303 <= 17032



Binary
c0
c1
c2
c3
c4
c5
c6
c7
c8
c9
c10
c11
c12
c13
c14
c15
c16
c17
c18
c19
c20
c21
c22
c23
c24
c25
c26
c27
c28
c29
c30
c31
c32
c33
c34
c35
c36
c37
c38
c39
c40
c41
c42
c43
c44
c45
c46
c47
c48
c49
c50
c51
c52
c53
c54
c55
c56
c57
c58
c59
c60
c61
c62
c63
c64
c65
c66
c67
c68
c69
c70
c71
c72
c73
c74
c75
c76
c77
c78
c79
c80
c81
c82
c83
c84
c85
c86
c87
c88
c89
c90
c91
c92
c93
c94
c95
c96
c97
c98
c99
c100
c101
c102
c103
c104
c105
c106
c107
c108
c109
c110
c111
c112
c113
c114
c115
c116
c117
c118
c119
c120
c121
c122
c123
c124
c125
c126
c127
c128
c129
c130
c131
c132
c133
c134
c135
c136
c137
c138
c139
c140
c141
c142
c143
c144
c145
c146
c147
c148
c149
c150
c151
c152
c153
c154
c155
c156
c157
s0
s1
s2
s3
s4
s5
s6
s7
s8
s9
s10
s11
s12
s13
s14
s15
s16
s17
s18
s19
s20
s21
s22
s23
s24
s25
s26
s27
s28
s29
s30
s31
s32
s33
s34
s35
s36
s37
s38
s39
s40
s41
s42
s43
s44
s45
s46
s47
s48
s49
s50
s51
s52
s53
s54
s55
s56
s57
s58
s59
s60
s61
s62
s63
s64
s65
s66
s67
s68
s69
s70
s71
s72
s73
s74
s75
s76
s77
s78
s79
s80
s81
s82
s83
s84
s85
s86
s87
s88
s89
s90
s91
s92
s93
s94
s95
s96
s97
s98
s99
s100
s101
s102
s103
s104
s105
s106
s107
s108
s109
s110
s111
s112
s113
s114
s115
s116
s117
s118
s119
s120
s121
s122
s123
s124
s125
s126
s127
s128
s129
s130
s131
s132
s133
s134
s135
s136
s137
s138
s139
s140
s141
s142
s143
s144
s145
s146
s147
s148
s149
s150
s151
s152
s153
s154
s155
s156
s157
s158
s159
s160
s161
s162
s163
s164
s165
s166
s167
s168
s169
s170
s171
s172
s173
s174
s175
s176
s177
s178
s179
s180
s181
s182
s183
s184
s185
s186
s187
s188
s189
s190
s191
s192
s193
s194
s195
s196
s197
s198
s199
s200
s201
s202
s203
s204
s205
s206
s207
s208
s209
s210
s211
s212
s213
s214
s215
s216
s217
s218
s219
s220
s221
s222
s223
s224
s225
s226
s227
s228
s229
s230
s231
s232
s233
s234
s235
s236
s237
s238
s239
s240
s241
s242
s243
s244
s245
s246
s247
s248
s249
s250
s251
s252
s253
s254
s255
s256
s257
s258
s259
s260
s261
s262
s263
s264
s265
s266
s267
s268
s269
s270
s271
s272
s273
s274
s275
s276
s277
s278
s279
s280
s281
s282
s283
s284
s285
s286
s287
s288
s289
s290
s291
s292
s293
s294
s295
s296
s297
s298
s299
s300
s301
s302
s303
End